NAME: tsp25_23
COMMENT: 25-tsp problem (Padberg/Rinaldi)
TYPE: TSP
DIMENSION: 25
EDGE_WEIGHT_TYPE : EUC_2D
NODE_COORD_SECTION
1 38 32
2 2 39
3 7 6
4 37 27
5 22 36
6 36 30
7 30 1
8 26 4
9 14 24
10 31 16
11 14 17
12 29 10
13 3 20
14 7 20
15 14 4
16 28 26
17 27 30
18 10 7
19 25 2
20 34 21
21 20 29
22 13 35
23 11 37
24 23 28
25 2 19
